g3 3 1 0	# problem dualc8
 8 15 1 0 1	# vars, constraints, objectives, ranges, eqns
 0 1	# nonlinear constraints, objectives
 0 0	# network constraints: nonlinear, linear
 0 8 0	# nonlinear vars in constraints, objectives, both
 0 0 0 1	# linear network variables; functions; arith, flags
 0 0 0 0 0	# discrete variables: binary, integer, nonlinear (b,c,o)
 120 8	# nonzeros in Jacobian, gradients
 0 0	# max name lengths: constraints, variables
 0 0 0 0 0	# common exprs: b,c,o,c1,o1
b
0 0 1
0 0 1
0 0 1
0 0 1
0 0 1
0 0 1
0 0 1
0 0 1
x8
0 0
1 0
2 0
3 0
4 0
5 0
6 0
7 0
r
4 1
1 0
1 0
2 0
2 0
1 0
1 0
1 0
1 0
1 0
1 0
1 0
1 0
1 0
1 0
C0
n0
C1
n0
C2
n0
C3
n0
C4
n0
C5
n0
C6
n0
C7
n0
C8
n0
C9
n0
C10
n0
C11
n0
C12
n0
C13
n0
C14
n0
O0 0
o54
36
o2
o2
n89418
v0
v0
o2
o2
n178836
v0
v1
o2
o2
n178836
v0
v2
o2
o2
n179790
v0
v3
o2
o2
n149678
v0
v4
o2
o2
n78662
v0
v5
o2
o2
n462746
v0
v6
o16
o2
o2
n32271
v0
v7
o2
o2
n89418
v1
v1
o2
o2
n178836
v1
v2
o2
o2
n179790
v1
v3
o2
o2
n149678
v1
v4
o2
o2
n78662
v1
v5
o2
o2
n462746
v1
v6
o16
o2
o2
n32271
v1
v7
o2
o2
n89418
v2
v2
o2
o2
n179790
v2
v3
o2
o2
n149678
v2
v4
o2
o2
n78662
v2
v5
o2
o2
n462746
v2
v6
o16
o2
o2
n32271
v2
v7
o2
o2
n90424
v3
v3
o2
o2
n151248
v3
v4
o2
o2
n79164
v3
v5
o2
o2
n461894
v3
v6
o16
o2
o2
n31137
v3
v7
o2
o2
n91276.5
v4
v4
o2
o2
n133438
v4
v5
o2
o2
n569115
v4
v6
o16
o2
o2
n41722
v4
v7
o2
o2
n661610
v5
v5
o2
o2
n2334540
v5
v6
o16
o2
o2
n875455
v5
v7
o2
o2
n2851940
v6
v6
o16
o2
o2
n1509560
v6
v7
o2
o2
n334189
v7
v7
k7
15
30
45
60
75
90
105
J0 8
0 1
1 1
2 1
3 1
4 1
5 1
6 1
7 1
J1 8
0 -160
1 -160
2 -160
3 -160
4 10
5 5
6 9
7 -2
J2 8
0 2
1 14
2 14
3 14
4 2
5 48
6 267
7 -89
J3 8
0 -96
1 -96
2 -96
3 -96
4 115
5 182
6 439
7 -35
J4 8
0 -77
1 -77
2 -77
3 -73
4 55
5 124
6 114
7 -25
J5 8
0 -27
1 -27
2 -27
3 -26
4 -26
5 -19
6 42
7 -27
J6 8
0 -138
1 -138
2 -138
3 -136
4 -136
5 51
6 53
7 -231
J7 8
0 -84
1 -84
2 -84
3 -90
4 -91
5 37
6 212
7 -229
J8 8
0 -114
1 -126
2 -130
3 -139
4 -139
5 81
6 171
7 -232
J9 8
0 -14
1 -14
2 -13
3 -15
4 -15
5 13
6 -49
7 -66
J10 8
0 -75
1 -39
2 -39
3 -39
4 -22
5 -33
6 6
7 -41
J11 8
0 -63
1 -63
2 -63
3 -69
4 -90
5 -66
6 -39
7 5
J12 8
0 -72
1 -81
2 -81
3 -84
4 -85
5 -91
6 -74
7 8
J13 8
0 -27
1 -25
2 -60
3 -60
4 -60
5 -100
6 -327
7 11
J14 8
0 4
1 -78
2 -78
3 -78
4 -116
5 -141
6 -463
7 16
G0 8
0 0
1 0
2 0
3 0.5890148067
4 32.720735483
5 3879.4127355
6 29480.193955
7 3879.4127355
